Route #1: 5 12 50 2 37 7 35 65 41 
Route #2: 18 39 8 25 28 17 19 
Route #3: 6 26 22 56 55 23 53 46 13 
Route #4: 64 63 62 31 58 4 61 
Route #5: 32 27 52 48 34 
Route #6: 11 9 21 20 36 51 15 
Route #7: 10 16 57 59 14 29 
Route #8: 67 42 44 30 60 33 24 38 66 3 
Route #9: 47 40 43 45 54 
Route #10: 49 
cost 1113.62
